Maximize
  0 x0 - 15 x1 + 0 x2 + 19 x3 + 0 x4 - 17 x5 + 25 x6 + 0 x7 + 0 x8 + 0 x9
   + 0 x10 + 0 x11 + 0 x12 - 11 x13 + 0 x14 + 0 x15 + 0 x16 + 0 x17 + 0 x18
   + 0 x19 + 0 x20 + 0 x21 + 0 x22 + 0 x23 + 0 x24 + 0 x25 + 0 x26 + 0 x27
   + 28 x28 + 0 x29 + 0 x30 - 6 x31 + 0 x32 + 0 x33 + 0 x34 + 0 x35 + 0 x36
   + 3 x37 + 22 x38 + 0 x39 + 0 x40 - 33 x41 + 0 x42 + 9 x43 + 0 x44
   - 6 x45 + 0 x46 + 0 x47 + 0 x48 + 0 x49 + [ 16 x0 ^2 + 86 x0 * x2
   - 72 x0 * x3 - 42 x0 * x4 + 22 x0 * x5 - 86 x0 * x9 - 68 x0 * x14
   + 6 x0 * x17 - 96 x0 * x19 + 86 x0 * x20 - 86 x0 * x28 - 70 x0 * x32
   - 40 x0 * x34 - 52 x0 * x42 - 94 x0 * x43 - 30 x0 * x46 - 34 x1 * x2
   + 22 x1 * x4 - 42 x1 * x11 + 82 x1 * x13 - 82 x1 * x19 + 26 x1 * x21
   - 52 x1 * x26 + 6 x1 * x27 + 58 x1 * x28 - 16 x1 * x30 + 88 x1 * x37
   + 84 x1 * x43 - 64 x1 * x47 + 96 x1 * x49 - 24 x2 ^2 - 90 x2 * x3
   - 84 x2 * x8 + 90 x2 * x9 - 78 x2 * x10 - 74 x2 * x16 - 16 x2 * x19
   - 98 x2 * x21 + 58 x2 * x22 - 56 x2 * x23 + 58 x2 * x25 - 50 x2 * x30
   + 88 x2 * x31 - 90 x2 * x36 - 68 x2 * x38 - 70 x2 * x41 - 58 x2 * x44
   - 58 x2 * x45 - 80 x2 * x47 - 33 x3 ^2 - 26 x3 * x5 - 80 x3 * x9
   - 92 x3 * x18 - 68 x3 * x21 + 90 x3 * x22 + 86 x3 * x31 - 16 x3 * x32
   - 62 x3 * x33 - 36 x3 * x36 + 30 x3 * x37 + 16 x3 * x38 - 4 x3 * x39
   + 68 x3 * x42 - 82 x3 * x44 - 14 x4 * x11 + 76 x4 * x12 - 2 x4 * x16
   + 28 x4 * x17 - 38 x4 * x18 - 98 x4 * x20 - 62 x4 * x22 - 82 x4 * x27
   - 52 x4 * x30 + 36 x4 * x32 - 98 x4 * x36 - 52 x4 * x39 - 92 x4 * x43
   + 4 x5 * x8 - 58 x5 * x10 - 86 x5 * x25 + 70 x5 * x30 + 74 x5 * x38
   + 18 x5 * x43 + 94 x5 * x44 - 94 x5 * x45 - 68 x5 * x48 - 92 x6 * x9
   - 36 x6 * x13 - 18 x6 * x15 - 20 x6 * x28 - 34 x6 * x33 - 82 x6 * x37
   + 32 x6 * x38 + 52 x6 * x49 - 10 x7 * x10 + 10 x7 * x11 + 92 x7 * x21
   - 90 x7 * x29 - 74 x7 * x34 + 28 x7 * x35 - 36 x7 * x43 + 40 x7 * x44
   - 4 x7 * x46 - 94 x8 * x9 + 54 x8 * x11 - 64 x8 * x17 - 52 x8 * x18
   - 96 x8 * x25 - 68 x8 * x27 - 70 x8 * x29 + 86 x8 * x33 - 26 x8 * x38
   + 26 x8 * x41 - 12 x8 * x43 - 13 x9 ^2 + 42 x9 * x10 + 56 x9 * x12
   + 36 x9 * x13 + 18 x9 * x20 - 42 x9 * x31 + 46 x9 * x33 - 18 x9 * x34
   + 78 x9 * x37 - 74 x9 * x38 - 16 x9 * x41 - 90 x9 * x49 - 24 x10 * x12
   + 68 x10 * x17 - 62 x10 * x18 + 10 x10 * x21 + 22 x10 * x23
   - 36 x10 * x29 - 54 x10 * x34 + 22 x10 * x37 + 54 x10 * x39
   + 76 x10 * x46 - 37 x11 ^2 - 70 x11 * x13 + 16 x11 * x16 - 2 x11 * x17
   - 98 x11 * x23 - 30 x11 * x33 + 12 x11 * x36 - 34 x11 * x38
   + 78 x11 * x40 - 40 x11 * x41 + 6 x11 * x43 - 98 x11 * x45
   - 86 x11 * x48 + 37 x12 ^2 + 96 x12 * x13 - 32 x12 * x19 + 26 x12 * x30
   - 32 x12 * x33 + 4 x12 * x40 + 32 x12 * x49 - 12 x13 * x18
   - 54 x13 * x29 + 4 x13 * x31 + 92 x13 * x35 - 24 x13 * x39
   + 80 x13 * x41 + 24 x13 * x43 - 32 x13 * x44 - 16 x13 * x45
   - 20 x13 * x46 + 38 x14 * x22 + 32 x14 * x23 + 28 x14 * x28
   + 26 x14 * x29 - 4 x14 * x30 + 22 x14 * x31 - 20 x14 * x32
   - 48 x14 * x34 - 20 x14 * x35 - 16 x14 * x36 - 32 x14 * x37
   + 16 x14 * x42 + 62 x14 * x44 + 78 x14 * x45 + 8 x14 * x47
   + 90 x14 * x48 + 60 x15 * x22 + 84 x15 * x27 - 50 x15 * x29
   - 96 x15 * x31 - 16 x15 * x32 + 74 x15 * x38 - 86 x15 * x39
   + 16 x15 * x41 + 52 x15 * x44 + 68 x15 * x45 - 32 x16 * x25
   - 80 x16 * x28 - 84 x16 * x33 - 34 x16 * x39 + 48 x16 * x43
   - 62 x16 * x45 + 48 x16 * x46 + 50 x16 * x48 - 36 x17 ^2 - 94 x17 * x18
   + 94 x17 * x20 + 52 x17 * x35 + 12 x17 * x36 - 32 x17 * x38
   - 62 x17 * x41 - 52 x17 * x45 + 30 x17 * x47 - 20 x17 * x48
   - 58 x18 * x22 - 72 x18 * x23 - 64 x18 * x24 - 78 x18 * x25
   - 40 x18 * x28 - 52 x18 * x31 - 6 x18 * x36 + 18 x18 * x38
   - 44 x18 * x41 + 72 x18 * x42 - 88 x18 * x45 + 12 x18 * x49
   - 20 x19 * x20 - 48 x19 * x22 - 70 x19 * x27 + 70 x19 * x28
   - 42 x19 * x32 - 70 x19 * x34 + 40 x19 * x44 + 64 x19 * x49
   + 32 x20 * x25 - 92 x20 * x29 + 56 x20 * x30 - 94 x20 * x34
   - 88 x20 * x35 - 60 x20 * x36 + 22 x20 * x42 - 26 x20 * x43
   + 68 x20 * x44 + 26 x20 * x45 + 78 x20 * x46 + 5 x21 ^2 - 20 x21 * x30
   - 42 x21 * x34 + 50 x21 * x36 - 86 x21 * x37 - 66 x21 * x41
   + 76 x21 * x48 + 40 x22 * x26 - 30 x22 * x27 - 66 x22 * x29
   + 62 x22 * x31 - 84 x22 * x33 + 76 x22 * x35 + 28 x22 * x37
   + 20 x22 * x39 + 74 x22 * x42 + 72 x22 * x46 + 62 x22 * x47
   - 26 x23 * x24 - 40 x23 * x27 + 88 x23 * x29 - 72 x23 * x38
   + 30 x23 * x39 - 6 x23 * x46 - 70 x24 * x26 + 88 x24 * x28
   - 94 x24 * x34 - 94 x24 * x47 + 36 x24 * x48 + 60 x24 * x49
   - 2 x25 * x28 - 16 x25 * x29 - 94 x25 * x30 + 54 x25 * x31
   + 12 x25 * x38 - 42 x25 * x40 - 98 x25 * x41 - 68 x26 * x28
   - 34 x26 * x34 + 24 x26 * x35 + 90 x26 * x36 + 28 x26 * x37
   - 90 x26 * x38 - 98 x26 * x39 - 26 x26 * x40 + 98 x26 * x44
   - 24 x26 * x49 - 20 x27 * x37 + 46 x27 * x39 - 74 x27 * x42
   - 32 x27 * x47 - 78 x27 * x49 - 86 x28 * x30 + 82 x28 * x31
   + 36 x28 * x34 + 52 x28 * x37 + 30 x28 * x38 - 80 x28 * x40
   + 88 x28 * x43 - 11 x29 ^2 + 12 x29 * x30 + 88 x29 * x31 - 14 x29 * x33
   - 70 x29 * x35 + 16 x29 * x38 - 46 x29 * x45 + 74 x30 * x45
   - 34 x31 * x32 + 92 x31 * x38 + 94 x31 * x42 - 72 x31 * x44 - 10 x32 ^2
   - 86 x32 * x33 - 60 x32 * x37 + 12 x32 * x39 - 18 x32 * x40
   - 60 x32 * x43 - 68 x32 * x48 + 38 x32 * x49 - 60 x33 * x34
   - 76 x33 * x37 + 4 x33 * x39 - 54 x33 * x40 - 56 x33 * x41
   + 22 x34 * x37 - 60 x34 * x38 + 76 x34 * x39 + 92 x34 * x43
   - 12 x34 * x46 + 44 x35 * x36 + 18 x35 * x38 - 44 x35 * x49 + 15 x36 ^2
   - 92 x36 * x37 - 52 x36 * x40 - 42 x36 * x41 + 12 x36 * x43
   - 32 x36 * x48 - 78 x37 * x39 + 46 x37 * x44 + 36 x37 * x46
   - 20 x37 * x49 - 12 x38 * x39 - 52 x38 * x47 + 48 x39 * x46
   - 86 x39 * x47 + 20 x40 * x49 + 74 x41 * x42 - 24 x41 * x43
   - 32 x41 * x46 - 46 x41 * x49 - 30 x42 * x43 - 22 x42 * x44
   + 44 x42 * x46 + 28 x42 * x48 - 80 x43 * x45 - 56 x43 * x48 + 23 x44 ^2
   - 18 x45 * x46 - 52 x45 * x47 - 68 x45 * x48 - 82 x47 * x49
   + 64 x48 * x49 + 35 x49 ^2 ] / 2 
Subject To
Bounds
 x0 <= 1
 x1 <= 1
 x2 <= 1
 x3 <= 1
 x4 <= 1
 x5 <= 1
 x6 <= 1
 x7 <= 1
 x8 <= 1
 x9 <= 1
 x10 <= 1
 x11 <= 1
 x12 <= 1
 x13 <= 1
 x14 <= 1
 x15 <= 1
 x16 <= 1
 x17 <= 1
 x18 <= 1
 x19 <= 1
 x20 <= 1
 x21 <= 1
 x22 <= 1
 x23 <= 1
 x24 <= 1
 x25 <= 1
 x26 <= 1
 x27 <= 1
 x28 <= 1
 x29 <= 1
 x30 <= 1
 x31 <= 1
 x32 <= 1
 x33 <= 1
 x34 <= 1
 x35 <= 1
 x36 <= 1
 x37 <= 1
 x38 <= 1
 x39 <= 1
 x40 <= 1
 x41 <= 1
 x42 <= 1
 x43 <= 1
 x44 <= 1
 x45 <= 1
 x46 <= 1
 x47 <= 1
 x48 <= 1
 x49 <= 1
End
